<instance format="XCSP3" type="CSP">
  <variables>
    <var id="x0"> 1 4 5 11 </var>
    <var id="x1"> 0 4 11 </var>
    <var id="x2"> 0 1 4 7 </var>
    <var id="x3"> 0 1 7 11 14 </var>
    <var id="x4"> 0 4 7 14 </var>
    <var id="x5"> 0 3 11 </var>
    <var id="x6"> 3 7 14 </var>
    <var id="x7"> 0 3 5 7 11 </var>
    <var id="x8"> 1 6 8 11 12 </var>
    <var id="x9"> 1 6 12 13 </var>
    <var id="x10"> 6 8 11 13 </var>
    <var id="x11"> 1 6 8 11 </var>
    <var id="x12"> 9 11 </var>
    <var id="x13"> 6 9 13 </var>
    <var id="x14"> 3 9 12 13 </var>
    <var id="x15"> 3 6 8 9 12 </var>
    <var id="x16"> 2 3 </var>
    <var id="x17"> 2 6 16 </var>
    <var id="x18"> 2 3 5 14 </var>
    <var id="x19"> 1 2 6 13 </var>
    <var id="x20"> 1 14 16 </var>
    <var id="x21"> 5 6 13 16 </var>
    <var id="x22"> 1 6 14 </var>
    <var id="x23"> 2 3 5 13 </var>
    <var id="x24"> 3 11 12 15 </var>
    <var id="x25"> 6 7 11 </var>
    <var id="x26"> 11 15 16 </var>
    <var id="x27"> 3 6 11 13 16 </var>
    <var id="x28"> 3 12 13 16 </var>
    <var id="x29"> 3 6 7 12 </var>
    <var id="x30"> 3 7 11..13 </var>
    <var id="x31"> 6 12 15 </var>
    <var id="x32"> 1 4..6 16 </var>
    <var id="x33"> 0 10 </var>
    <var id="x34"> 0 4 6 16 17 </var>
    <var id="x35"> 0 5 </var>
    <var id="x36"> 0 5 6 16 17 </var>
    <var id="x37"> 0 5 16 17 </var>
    <var id="x38"> 0 4 6 </var>
    <var id="x39"> 1 6 10 16 </var>
    <var id="x40"> 0 4 12 13 </var>
    <var id="x41"> 0 4 8 16 </var>
    <var id="x42"> 0 5 8 13 16 </var>
    <var id="x43"> 0 5 16 </var>
    <var id="x44"> 0 8 13 16 </var>
    <var id="x45"> 8 10 13 16 </var>
    <var id="x46"> 0 4 10 12 13 16 </var>
    <var id="x47"> 5 10 12 </var>
    <var id="x48"> 2 5 7 12 15 </var>
    <var id="x49"> 2 7 12 </var>
    <var id="x50"> 2 5 15 17 </var>
    <var id="x51"> 8 </var>
    <var id="x52"> 2 12 </var>
    <var id="x53"> 7 8 </var>
    <var id="x54"> 5 15 17 </var>
    <var id="x55"> 0 15 </var>
    <var id="x56"> 0 6 11 13 </var>
    <var id="x57"> 6 9 13 </var>
    <var id="x58"> 0 4 9 13 </var>
    <var id="x59"> 0 11 13 </var>
    <var id="x60"> 6 9 15 </var>
    <var id="x61"> 4 11 15 </var>
    <var id="x62"> 1 4 11 12 </var>
    <var id="x63"> 0 2 11 12 </var>
    <var id="x64"> 0 2 4 11 </var>
    <var id="x65"> 0..2 4 12 13 </var>
    <var id="x66"> 0 11 13 </var>
    <var id="x67"> 0 2 4 9 12 </var>
    <var id="x68"> 0 2 11..13 </var>
    <var id="x69"> 2 9 12 </var>
    <var id="x70"> 0 11 16 </var>
    <var id="x71"> 0 1 7 12 </var>
    <var id="x72"> 0 1 11 16 </var>
    <var id="x73"> 0 1 7 10 11 </var>
    <var id="x74"> 0 7 </var>
    <var id="x75"> 0 12 16 </var>
    <var id="x76"> 10 12 15 </var>
    <var id="x77"> 1 10 11 15 16 </var>
    <var id="x78"> 4 6 8 </var>
    <var id="x79"> 0 2 8 15 </var>
    <var id="x80"> 0 2 15 </var>
    <var id="x81"> 0 2 4 6 9 </var>
    <var id="x82"> 0 4 9 </var>
    <var id="x83"> 0 2 </var>
    <var id="x84"> 2 6 9 15 17 </var>
    <var id="x85"> 4 15 17 </var>
    <var id="x86"> 4 6 </var>
    <var id="x87"> 0 4 14 </var>
    <var id="x88"> 0 6 </var>
    <var id="x89"> 0 2 9 </var>
    <var id="x90"> 0 3 6 </var>
    <var id="x91"> 0 3 4 9 </var>
    <var id="x92"> 3 6 9 14 </var>
    <var id="x93"> 8 11 12 </var>
    <var id="x94"> 2 8 11 17 </var>
    <var id="x95"> 8 11 </var>
    <var id="x96"> 8 11 13 17 </var>
    <var id="x97"> 8 10 11 </var>
    <var id="x98"> 8 11 13 </var>
    <var id="x99"> 8..10 13 </var>
    <var id="x100"> 10 11 17 </var>
    <var id="x101"> 0 3 8 10 11 </var>
    <var id="x102"> 0 8 11 16 </var>
    <var id="x103"> 0 6 7 </var>
    <var id="x104"> 0 3 10 16 </var>
    <var id="x105"> 3 6..8 </var>
    <var id="x106"> 0 3 7 11 </var>
    <var id="x107"> 6 10 </var>
    <var id="x108"> 10 11 16 </var>
    <var id="x109"> 0 2 6 11 16 17 </var>
    <var id="x110"> 0 2 5 12 </var>
    <var id="x111"> 0 11 16 </var>
    <var id="x112"> 0 2 5 11 16 17 </var>
    <var id="x113"> 0 2 6 12 16 </var>
    <var id="x114"> 6 16 </var>
    <var id="x115"> 0 2 5 11 12 </var>
    <var id="x116"> 5 11 16 17 </var>
    <var id="x117"> 0 2 8 10 </var>
    <var id="x118"> 0 2 7 14 </var>
    <var id="x119"> 0 6 8 16 </var>
    <var id="x120"> 0 6..8 10 14 </var>
    <var id="x121"> 0 2 16 </var>
    <var id="x122"> 0 2 6 7 14 </var>
    <var id="x123"> 6..8 10 16 </var>
    <var id="x124"> 6..8 14 </var>
    <var id="x125"> 8 11 16 </var>
    <var id="x126"> 0 2 8 11 </var>
    <var id="x127"> 0 2 7 14 </var>
    <var id="x128"> 0 2 7 </var>
    <var id="x129"> 0 2 7 9 14 </var>
    <var id="x130"> 0 2 9 16 </var>
    <var id="x131"> 7..9 14 </var>
    <var id="x132"> 11 16 </var>
    <var id="x133"> 0 4 6 8 16 17 </var>
    <var id="x134"> 0 6 8 </var>
    <var id="x135"> 0 4 6 </var>
    <var id="x136"> 0 4 6 12 16 </var>
    <var id="x137"> 6 8 16 </var>
    <var id="x138"> 0 4 12 16 </var>
    <var id="x139"> 6 8 12 17 </var>
    <var id="x140"> 5 6 12 17 </var>
  </variables>
  <constraints>
    <group>
      <allDifferent> %... </allDifferent>
      <args> x0 x1 x2 x3 x4 x5 x6 x7 </args>
      <args> x8 x9 x10 x11 x12 x13 x14 x15 </args>
      <args> x16 x17 x18 x19 x20 x21 x22 x23 </args>
      <args> x24 x25 x26 x27 x28 x29 x30 x31 </args>
      <args> x32 x33 x34 x35 x36 x37 x38 x39 </args>
      <args> x40 x41 x42 x43 x44 x45 x46 x47 </args>
      <args> x48 x49 x50 x51 x52 x53 x54 </args>
      <args> x55 x56 x57 x58 x59 x60 x61 </args>
      <args> x62 x63 x64 x65 x66 x67 x68 x69 </args>
      <args> x70 x71 x72 x73 x74 x75 x76 x77 </args>
      <args> x78 x79 x80 x81 x82 x83 x84 x85 </args>
      <args> x86 x87 x88 x89 x90 x91 x92 </args>
      <args> x93 x94 x95 x96 x97 x98 x99 x100 </args>
      <args> x101 x102 x103 x104 x105 x106 x107 x108 </args>
      <args> x109 x110 x111 x112 x113 x114 x115 x116 </args>
      <args> x117 x118 x119 x120 x121 x122 x123 x124 </args>
      <args> x125 x126 x127 x128 x129 x130 x131 x132 </args>
      <args> x133 x134 x135 x136 x137 x138 x139 x140 </args>
      <args> x0 x8 x32 x62 x78 x86 x93 x125 </args>
      <args> x16 x24 x33 x63 x79 x101 x117 x126 </args>
      <args> x1 x17 x34 x64 x70 x94 x109 x133 </args>
      <args> x18 x35 x48 x55 x80 x110 x118 x127 </args>
      <args> x2 x9 x19 x40 x49 x65 x71 x128 </args>
      <args> x20 x41 x72 x87 x95 x102 x111 </args>
      <args> x10 x21 x36 x42 x66 x88 x96 x119 </args>
      <args> x3 x11 x22 x25 x73 x97 x120 x134 </args>
      <args> x12 x26 x37 x43 x50 x89 x112 x121 </args>
      <args> x4 x13 x38 x74 x103 x122 x129 x135 </args>
      <args> x5 x27 x44 x51 x56 x90 x98 </args>
      <args> x52 x67 x75 x81 x113 x130 x136 </args>
      <args> x39 x45 x53 x57 x99 x114 x123 x137 </args>
      <args> x14 x28 x46 x58 x82 x91 x104 x138 </args>
      <args> x6 x15 x29 x92 x105 x124 x131 x139 </args>
      <args> x7 x23 x30 x59 x68 x83 x106 x115 </args>
      <args> x31 x47 x60 x69 x76 x84 x107 x140 </args>
      <args> x54 x61 x77 x85 x100 x108 x116 x132 </args>
    </group>
  </constraints>
</instance>

